;(set-option :produce-unsat-cores true )
(set-logic ALL_SUPPORTED )
(declare-sort A$ 0 )
(declare-sort A_set$ 0 )
(declare-sort A_a_fun$ 0 )
(declare-sort A_llist_bool_fun$ 0 )
(declare-sort A_a_llist_bool_fun_fun$ 0 )
(declare-sort A_llist$ 0)
(declare-fun lNil$ ()A_llist$)
(declare-fun lhd$ (A_llist$)A$)
(declare-fun ltl$ (A_llist$)A_llist$)
(declare-fun lCons$ (A$ A_llist$ )A_llist$)
(declare-fun xs$ ()A_llist$ )
(declare-fun lmap$ (A_a_fun$ A_llist$ )A_llist$ )
(declare-fun lset$ (A_llist$ )A_set$ )
(declare-fun lsetp$ (A_llist$ A$ )Bool )
(declare-fun finite$ (A_set$ )Bool )
(declare-fun member$ (A$ A_set$ )Bool )
(declare-fun fun_app$ (A_a_fun$ A$ )A$ )
(declare-fun lfinite$ (A_llist$ )Bool )
(declare-fun lmember$ (A$ A_llist$ )Bool )
(declare-fun fun_app$a (A_llist_bool_fun$ A_llist$ )Bool )
(declare-fun fun_app$b (A_a_llist_bool_fun_fun$ A$ )A_llist_bool_fun$ )
(assert (! (not (finite$ (lset$ xs$ ))):named a0 ))
(assert (! (lfinite$ xs$ ):named a1 ))
(assert (! (forall ((?v0 A$ )(?v1 A_llist$ ))(= (member$ ?v0 (lset$ ?v1 ))(lmember$ ?v0 ?v1 ))):named a2 ))
(assert (! (forall ((?v0 A$ )(?v1 A_llist$ ))(=> (member$ ?v0 (lset$ ?v1 ))(lsetp$ ?v1 ?v0 ))):named a3 ))
(assert (! (forall ((?v0 A_llist$ )(?v1 A$ ))(=> (lsetp$ ?v0 ?v1 )(member$ ?v1 (lset$ ?v0 )))):named a4 ))
(assert (! (forall ((?v0 A$ )(?v1 A_llist$ ))(=> (member$ ?v0 (lset$ (ltl$ ?v1 )))(member$ ?v0 (lset$ ?v1 )))):named a5 ))
(assert (! (forall ((?v0 A_llist$ )(?v1 A_llist$ )(?v2 A_a_fun$ )(?v3 A_a_fun$ ))(=> (and (forall ((?v4 A$ )(?v5 A$ ))(=> (and (member$ ?v4 (lset$ ?v0 ))(and (member$ ?v5 (lset$ ?v1 ))(= (fun_app$ ?v2 ?v4 )(fun_app$ ?v3 ?v5 ))))(= ?v4 ?v5 )))(= (lmap$ ?v2 ?v0 )(lmap$ ?v3 ?v1 )))(= ?v0 ?v1 ))):named a6 ))
(assert (! (forall ((?v0 A_llist$ )(?v1 A_a_fun$ )(?v2 A_a_fun$ ))(=> (forall ((?v3 A$ ))(=> (member$ ?v3 (lset$ ?v0 ))(= (fun_app$ ?v1 ?v3 )(fun_app$ ?v2 ?v3 ))))(= (lmap$ ?v1 ?v0 )(lmap$ ?v2 ?v0 )))):named a7 ))
(assert (! (forall ((?v0 A_llist$ )(?v1 A_llist$ )(?v2 A_a_fun$ )(?v3 A_a_fun$ ))(=> (and (= ?v0 ?v1 )(forall ((?v4 A$ ))(=> (member$ ?v4 (lset$ ?v1 ))(= (fun_app$ ?v2 ?v4 )(fun_app$ ?v3 ?v4 )))))(= (lmap$ ?v2 ?v0 )(lmap$ ?v3 ?v1 )))):named a8 ))
(assert (! (forall ((?v0 A$ )(?v1 A_llist$ )(?v2 A_a_llist_bool_fun_fun$ ))(=> (and (member$ ?v0 (lset$ ?v1 ))(and (forall ((?v3 A$ )(?v4 A_llist$ ))(fun_app$a (fun_app$b ?v2 ?v3 )(lCons$ ?v3 ?v4 )))(forall ((?v3 A$ )(?v4 A_llist$ )(?v5 A$ ))(=> (and (member$ ?v5 (lset$ ?v4 ))(fun_app$a (fun_app$b ?v2 ?v5 )?v4 ))(fun_app$a (fun_app$b ?v2 ?v5 )(lCons$ ?v3 ?v4 ))))))(fun_app$a (fun_app$b ?v2 ?v0 )?v1 ))):named a9 ))
(assert (! (forall ((?v0 A$ )(?v1 A_llist$ ))(=> (and (member$ ?v0 (lset$ ?v1 ))(and (forall ((?v2 A_llist$ ))(=> (= ?v1 (lCons$ ?v0 ?v2 ))false ))(forall ((?v2 A$ )(?v3 A_llist$ ))(=> (and (= ?v1 (lCons$ ?v2 ?v3 ))(member$ ?v0 (lset$ ?v3 )))false ))))false )):named a10 ))
(assert (! (forall ((?v0 A$ )(?v1 A_llist$ )(?v2 A$ )(?v3 A_llist$ ))(= (= (lCons$ ?v0 ?v1 )(lCons$ ?v2 ?v3 ))(and (= ?v0 ?v2 )(= ?v1 ?v3 )))):named a11 ))
(assert (! (forall ((?v0 A_a_fun$ )(?v1 A_llist$ ))(= (ltl$ (lmap$ ?v0 ?v1 ))(lmap$ ?v0 (ltl$ ?v1 )))):named a12 ))
(assert (! (forall ((?v0 A$ )(?v1 A_llist$ ))(! (= (lfinite$ (lCons$ ?v0 ?v1 ))(lfinite$ ?v1 )):pattern ((lCons$ ?v0 ?v1 )))):named a13 ))
(assert (! (forall ((?v0 A$ )(?v1 A_llist$ ))(! (= (lfinite$ (lCons$ ?v0 ?v1 ))(lfinite$ ?v1 )):pattern ((lCons$ ?v0 ?v1 )))):named a14 ))
(check-sat )
;(get-unsat-core )
